n=588;
k_min=13;
k_max=13;
M=[| 74, 72, 73, 80, 68, 81, 79, 83, 74, 80, 80, 70, 81
 | 74, 72, 73, 80, 68, 81, 79, 83, 74, 80, 80, 70, 81
 | 74, 72, 72, 80, 69, 81, 79, 82, 74, 80, 81, 70, 80
 | 74, 72, 72, 81, 69, 81, 79, 82, 74, 80, 81, 70, 80
 | 74, 72, 72, 81, 69, 81, 78, 83, 74, 79, 81, 70, 80
 | 74, 72, 72, 81, 69, 81, 78, 83, 73, 79, 82, 70, 80
 | 74, 72, 72, 81, 69, 81, 78, 82, 73, 79, 82, 70, 80
 | 74, 72, 72, 82, 69, 81, 78, 82, 73, 79, 83, 70, 79
 | 74, 72, 72, 82, 69, 81, 78, 82, 73, 79, 83, 70, 79
 | 74, 72, 72, 83, 69, 81, 78, 81, 74, 79, 82, 70, 79
 | 74, 73, 72, 83, 69, 81, 78, 80, 74, 79, 81, 70, 79
 | 74, 73, 72, 82, 69, 81, 78, 80, 74, 79, 81, 71, 79
 | 74, 73, 72, 83, 69, 81, 78, 80, 74, 79, 80, 71, 79
 | 74, 74, 72, 82, 69, 81, 78, 79, 74, 79, 80, 71, 79
 | 74, 74, 72, 82, 69, 81, 78, 79, 75, 79, 80, 71, 79
 | 74, 74, 72, 83, 69, 80, 78, 79, 75, 80, 79, 71, 79
 | 75, 74, 72, 82, 69, 80, 79, 78, 75, 80, 79, 71, 79
 | 75, 74, 72, 82, 69, 80, 79, 78, 75, 80, 78, 71, 80
 | 75, 72, 73, 79, 68, 81, 79, 82, 74, 80, 80, 70, 81
 | 74, 72, 73, 80, 68, 81, 79, 83, 74, 80, 80, 70, 81
 | 74, 72, 73, 80, 69, 81, 79, 82, 74, 80, 80, 70, 81
 | 74, 72, 73, 80, 69, 81, 79, 82, 74, 80, 81, 70, 80
 | 74, 72, 73, 80, 68, 81, 79, 82, 74, 80, 80, 70, 80
 | 74, 72, 72, 81, 69, 81, 79, 83, 74, 79, 81, 70, 80
 | 74, 72, 72, 81, 69, 81, 78, 83, 74, 79, 81, 70, 80
 | 74, 72, 72, 81, 69, 81, 78, 83, 73, 79, 82, 70, 80
 | 74, 72, 72, 81, 69, 81, 78, 82, 74, 79, 82, 70, 80
 | 74, 72, 72, 82, 69, 81, 78, 82, 73, 79, 82, 70, 79
 | 74, 72, 72, 82, 69, 81, 78, 82, 73, 79, 83, 70, 79
 | 74, 72, 72, 82, 69, 81, 78, 81, 74, 79, 82, 70, 79
 | 74, 72, 72, 83, 69, 81, 78, 81, 74, 79, 82, 70, 79
 | 74, 73, 72, 83, 69, 81, 78, 81, 74, 79, 82, 70, 79
 | 74, 73, 72, 82, 69, 81, 78, 81, 74, 79, 82, 71, 79
 | 74, 73, 72, 83, 69, 81, 78, 80, 74, 79, 81, 71, 79
 | 74, 73, 72, 82, 70, 81, 78, 80, 74, 79, 81, 71, 79
 | 74, 74, 72, 83, 70, 81, 78, 79, 74, 79, 80, 71, 79
 | 74, 73, 72, 82, 69, 81, 78, 80, 74, 79, 81, 71, 79
 | 74, 74, 72, 83, 70, 80, 78, 79, 74, 79, 80, 71, 79
 | 74, 74, 72, 82, 70, 80, 78, 79, 75, 79, 80, 71, 79
 | 74, 74, 72, 82, 70, 80, 78, 79, 75, 79, 79, 71, 79
 | 75, 74, 72, 82, 70, 80, 78, 78, 75, 80, 79, 71, 79
 | 75, 74, 72, 82, 70, 80, 79, 78, 75, 80, 78, 71, 79
 | 75, 74, 72, 82, 69, 80, 79, 78, 75, 80, 78, 71, 79
 | 75, 72, 73, 79, 69, 80, 79, 82, 74, 80, 80, 70, 81
 | 74, 72, 73, 80, 69, 81, 79, 82, 74, 80, 80, 70, 80
 | 74, 72, 73, 80, 69, 81, 79, 82, 74, 80, 80, 70, 80
 | 74, 72, 73, 80, 69, 81, 79, 82, 74, 80, 81, 70, 80
 | 74, 72, 73, 80, 69, 81, 79, 82, 74, 79, 81, 70, 80
 | 74, 72, 73, 80, 69, 81, 79, 82, 74, 79, 81, 70, 80
 | 74, 72, 73, 80, 69, 81, 79, 82, 74, 79, 81, 70, 80
 | 74, 72, 73, 81, 69, 81, 78, 82, 74, 79, 81, 70, 80
 | 74, 72, 72, 81, 69, 81, 78, 82, 74, 79, 81, 70, 80
 | 74, 72, 72, 81, 69, 81, 78, 82, 74, 79, 82, 70, 80
 | 74, 72, 72, 81, 69, 81, 78, 82, 74, 79, 82, 70, 79
 | 74, 72, 72, 81, 69, 81, 78, 82, 74, 79, 82, 70, 79
 | 74, 72, 72, 82, 69, 81, 78, 82, 74, 79, 82, 70, 79
 | 74, 72, 72, 82, 69, 81, 78, 82, 74, 79, 82, 70, 79
 | 74, 72, 72, 82, 69, 81, 78, 82, 74, 79, 83, 70, 79
 | 74, 72, 72, 82, 69, 81, 78, 81, 74, 79, 82, 70, 79
 | 74, 73, 72, 82, 69, 81, 78, 81, 74, 79, 82, 70, 79
 | 74, 73, 72, 82, 69, 81, 78, 81, 74, 79, 82, 71, 79
 | 74, 73, 72, 82, 70, 81, 78, 80, 74, 79, 81, 71, 79
 | 74, 74, 72, 82, 70, 81, 78, 80, 74, 79, 81, 71, 79
 | 74, 73, 72, 82, 70, 81, 78, 80, 74, 79, 81, 71, 79
 | 74, 73, 72, 82, 69, 81, 78, 80, 74, 79, 81, 71, 79
 | 74, 73, 72, 82, 69, 81, 78, 81, 74, 79, 82, 71, 79
 | 74, 73, 72, 82, 70, 81, 78, 80, 74, 79, 81, 71, 79
 | 74, 73, 72, 83, 69, 81, 78, 80, 74, 79, 81, 71, 79
 | 74, 74, 72, 82, 70, 80, 78, 80, 74, 79, 81, 71, 79
 | 74, 74, 72, 83, 70, 80, 78, 79, 74, 79, 80, 71, 79
 | 74, 74, 72, 83, 70, 80, 78, 79, 75, 79, 80, 71, 79
 | 74, 74, 72, 82, 70, 80, 78, 79, 75, 79, 80, 72, 79
 | 75, 74, 72, 82, 70, 80, 78, 78, 75, 79, 79, 72, 79
 | 75, 74, 72, 82, 70, 80, 78, 78, 75, 79, 79, 72, 79
 | 75, 74, 72, 82, 70, 80, 78, 78, 75, 79, 79, 72, 79
 | 75, 74, 73, 82, 70, 80, 79, 78, 75, 80, 78, 72, 79
 | 75, 74, 73, 82, 70, 80, 79, 78, 75, 80, 78, 71, 79
 | 74, 73, 72, 82, 69, 81, 78, 81, 74, 79, 82, 71, 79
 | 74, 73, 72, 82, 69, 81, 78, 81, 74, 79, 82, 71, 79
 | 74, 72, 72, 82, 69, 81, 78, 81, 74, 79, 82, 70, 79
 | 74, 72, 72, 82, 69, 81, 78, 82, 74, 79, 82, 70, 79
 | 74, 72, 72, 82, 69, 81, 78, 82, 74, 79, 82, 70, 79
 | 74, 72, 72, 81, 69, 81, 78, 82, 74, 79, 82, 70, 79
 | 74, 72, 72, 81, 69, 81, 78, 82, 74, 79, 82, 70, 79
 | 74, 73, 72, 83, 69, 81, 78, 80, 74, 79, 81, 71, 79
 | 74, 74, 72, 83, 70, 81, 78, 79, 74, 79, 80, 71, 79
 | 74, 74, 72, 82, 70, 80, 78, 79, 75, 79, 80, 71, 79
 | 74, 72, 73, 81, 69, 81, 78, 82, 74, 79, 82, 70, 79
 | 74, 72, 73, 81, 69, 81, 78, 82, 74, 79, 81, 70, 80
 | 74, 72, 73, 80, 69, 81, 78, 82, 74, 79, 81, 70, 80
 | 74, 72, 73, 80, 69, 81, 78, 82, 74, 79, 81, 70, 80
 | 74, 72, 73, 80, 69, 80, 79, 82, 74, 79, 81, 70, 80
 | 74, 72, 73, 80, 69, 80, 79, 82, 74, 79, 81, 70, 80
 | 74, 72, 73, 80, 69, 80, 79, 82, 74, 79, 80, 70, 80
 | 74, 72, 73, 80, 69, 80, 79, 82, 74, 80, 80, 70, 80
 | 75, 72, 73, 79, 69, 80, 79, 82, 74, 80, 80, 70, 80
 | 75, 72, 73, 79, 69, 80, 79, 82, 74, 80, 80, 70, 80
 | 75, 72, 73, 79, 69, 80, 79, 82, 74, 80, 80, 70, 80
 | 74, 74, 72, 82, 70, 81, 78, 80, 74, 79, 81, 71, 79
 | 74, 73, 72, 82, 69, 81, 78, 80, 74, 79, 81, 71, 79
 | 74, 74, 72, 82, 69, 81, 78, 79, 75, 79, 80, 71, 79
 | 74, 73, 72, 83, 69, 81, 78, 79, 74, 79, 80, 71, 79
 | 74, 73, 72, 83, 69, 81, 78, 81, 74, 79, 82, 70, 79
 | 74, 73, 72, 82, 69, 81, 78, 80, 74, 79, 81, 71, 79
 | 74, 74, 72, 83, 69, 81, 78, 79, 75, 80, 79, 71, 79
 | 75, 74, 72, 83, 69, 80, 79, 78, 75, 80, 79, 71, 79
 | 75, 74, 73, 81, 70, 80, 79, 78, 76, 80, 78, 72, 79
 | 75, 74, 73, 82, 70, 80, 79, 78, 75, 80, 78, 72, 79
 | 74, 72, 72, 81, 68, 82, 79, 81, 74, 81, 80, 69, 81
 | 74, 72, 72, 81, 68, 82, 79, 81, 74, 80, 81, 69, 81
 | 74, 72, 72, 81, 68, 82, 79, 81, 74, 80, 81, 69, 81
 | 74, 72, 72, 81, 68, 82, 79, 81, 74, 80, 81, 69, 80
 | 74, 72, 72, 82, 68, 82, 79, 81, 74, 80, 81, 70, 80
 | 74, 72, 72, 82, 68, 82, 79, 81, 74, 80, 81, 70, 80
 | 74, 72, 72, 81, 68, 82, 79, 80, 74, 80, 81, 70, 80
 | 74, 72, 72, 81, 68, 82, 79, 80, 74, 81, 80, 70, 81
 | 74, 72, 72, 80, 68, 82, 80, 81, 74, 81, 80, 69, 81
 | 74, 72, 72, 80, 68, 82, 80, 81, 74, 81, 80, 69, 81
 | 74, 72, 72, 81, 68, 83, 79, 81, 74, 81, 80, 69, 81
 | 74, 72, 72, 81, 68, 82, 79, 81, 74, 80, 81, 69, 81
 | 74, 72, 72, 81, 68, 83, 79, 81, 74, 80, 81, 69, 81
 | 74, 72, 72, 81, 68, 83, 79, 81, 74, 80, 81, 70, 81
 | 74, 72, 72, 81, 68, 83, 79, 81, 74, 80, 81, 69, 81
 | 74, 72, 72, 81, 68, 83, 79, 81, 74, 81, 80, 70, 81
 | 74, 72, 72, 81, 68, 82, 79, 81, 74, 80, 81, 69, 81
 | 74, 72, 72, 81, 68, 82, 79, 81, 74, 80, 81, 70, 80
 | 74, 72, 72, 81, 68, 82, 79, 81, 74, 80, 81, 70, 80
 | 74, 72, 72, 81, 68, 82, 79, 80, 74, 80, 80, 70, 81
 | 74, 72, 72, 81, 68, 82, 79, 80, 74, 80, 81, 70, 80
 | 74, 72, 72, 81, 68, 82, 79, 81, 74, 80, 81, 70, 80
 | 74, 72, 72, 82, 68, 82, 79, 81, 74, 80, 81, 70, 80
 | 74, 72, 72, 82, 68, 82, 79, 81, 74, 80, 81, 70, 80
 | 74, 72, 72, 79, 68, 81, 80, 81, 74, 81, 79, 69, 82
 | 74, 72, 72, 80, 68, 81, 80, 81, 74, 81, 79, 69, 82
 | 74, 72, 72, 80, 68, 82, 80, 80, 74, 81, 79, 69, 81
 | 75, 72, 72, 80, 68, 81, 80, 80, 74, 81, 79, 70, 81
 | 75, 72, 72, 80, 68, 80, 81, 79, 75, 82, 78, 70, 81
 | 75, 72, 73, 79, 68, 80, 81, 79, 75, 83, 77, 70, 82
 | 75, 72, 73, 79, 68, 80, 81, 80, 75, 82, 78, 69, 82
 | 75, 72, 73, 79, 68, 80, 81, 80, 74, 82, 78, 69, 83
 | 75, 72, 72, 79, 68, 81, 80, 81, 74, 81, 79, 69, 82
 | 74, 72, 72, 80, 68, 81, 80, 81, 74, 81, 79, 69, 82
 | 74, 72, 72, 80, 68, 81, 80, 80, 74, 82, 79, 69, 82
 | 74, 72, 72, 80, 68, 81, 80, 80, 74, 82, 79, 69, 82
 | 75, 72, 72, 80, 68, 81, 80, 80, 74, 82, 79, 69, 82
 | 75, 72, 72, 79, 68, 81, 81, 80, 74, 82, 78, 69, 82
 | 75, 72, 73, 79, 68, 80, 81, 80, 74, 82, 78, 69, 82
 | 75, 72, 72, 79, 68, 81, 81, 80, 74, 82, 78, 69, 82
 | 75, 72, 72, 79, 68, 80, 81, 80, 75, 82, 78, 70, 82
 | 75, 72, 73, 79, 68, 80, 81, 80, 75, 82, 78, 69, 82
 | 75, 72, 73, 79, 68, 80, 81, 79, 75, 83, 78, 70, 82
 | 75, 72, 72, 80, 68, 81, 80, 79, 75, 82, 78, 70, 81
 | 75, 72, 72, 80, 68, 81, 80, 80, 74, 82, 79, 69, 82
 | 75, 72, 73, 79, 68, 80, 81, 80, 74, 82, 78, 69, 83
 | 75, 72, 73, 79, 68, 81, 81, 81, 74, 82, 78, 69, 83
 | 75, 72, 72, 80, 68, 81, 81, 79, 75, 82, 78, 70, 82
 | 75, 72, 72, 80, 68, 81, 80, 80, 74, 82, 79, 70, 81
 | 74, 72, 72, 80, 68, 81, 80, 80, 74, 81, 79, 70, 81
 | 74, 72, 72, 80, 68, 82, 80, 81, 74, 81, 79, 69, 82
 | 76, 72, 73, 78, 68, 79, 82, 79, 75, 82, 77, 70, 82
 | 76, 72, 73, 79, 68, 79, 82, 79, 75, 82, 77, 70, 81
 | 76, 73, 73, 79, 69, 79, 82, 78, 76, 82, 76, 70, 81
 | 76, 72, 73, 78, 68, 79, 82, 79, 75, 82, 77, 70, 82
 | 76, 72, 74, 78, 69, 79, 82, 79, 75, 81, 77, 70, 81
 | 77, 73, 75, 77, 69, 78, 82, 79, 76, 81, 76, 71, 81
 | 77, 73, 75, 77, 70, 78, 82, 78, 76, 80, 76, 71, 80
 | 77, 73, 75, 77, 70, 78, 82, 78, 77, 80, 75, 71, 80
 | 78, 74, 75, 77, 70, 77, 82, 77, 77, 80, 75, 72, 80
 | 78, 74, 75, 77, 70, 77, 82, 77, 77, 80, 75, 72, 80
 | 77, 73, 74, 78, 69, 78, 82, 78, 76, 81, 76, 71, 80
 | 76, 73, 74, 78, 69, 79, 82, 78, 76, 82, 76, 70, 81
 | 76, 73, 74, 78, 69, 79, 83, 79, 76, 82, 76, 70, 81
 | 76, 73, 74, 78, 69, 79, 82, 79, 76, 81, 76, 70, 81
 | 77, 73, 75, 77, 69, 78, 82, 78, 76, 81, 76, 71, 81
 | 77, 73, 75, 77, 70, 78, 82, 78, 76, 81, 76, 71, 80
 | 77, 73, 75, 77, 69, 78, 82, 78, 76, 81, 76, 71, 80
 | 77, 73, 74, 78, 69, 78, 83, 78, 76, 81, 76, 70, 81
 | 76, 73, 74, 78, 69, 79, 83, 79, 76, 81, 76, 70, 81
 | 76, 72, 74, 78, 68, 79, 82, 79, 75, 82, 77, 70, 81
 | 77, 73, 74, 77, 69, 78, 82, 79, 76, 81, 76, 71, 81
 | 77, 73, 75, 77, 69, 78, 82, 78, 76, 81, 76, 71, 81
 | 77, 73, 74, 77, 69, 78, 83, 78, 76, 81, 76, 71, 81
 | 76, 72, 74, 78, 68, 79, 82, 79, 75, 82, 76, 70, 81
 | 76, 73, 74, 78, 69, 79, 82, 78, 76, 82, 76, 70, 81
 | 77, 73, 74, 78, 69, 78, 82, 78, 76, 81, 76, 71, 80
 | 77, 73, 75, 78, 69, 78, 82, 78, 76, 81, 76, 71, 80
 | 76, 72, 74, 78, 68, 79, 82, 79, 75, 82, 77, 70, 81
 | 76, 72, 73, 78, 68, 79, 82, 79, 75, 82, 77, 70, 82
 | 76, 72, 74, 78, 68, 79, 82, 79, 75, 82, 77, 70, 82
 | 76, 72, 74, 78, 69, 79, 82, 79, 75, 81, 77, 70, 81
 | 76, 72, 74, 78, 69, 79, 82, 79, 76, 81, 76, 70, 81
 | 76, 72, 74, 78, 69, 79, 82, 79, 75, 81, 76, 70, 81
 | 76, 72, 74, 77, 69, 79, 82, 79, 76, 81, 76, 71, 81
 | 76, 72, 74, 78, 69, 79, 82, 79, 75, 81, 77, 70, 81
 | 76, 72, 74, 78, 68, 79, 82, 79, 75, 82, 77, 70, 81
 | 76, 73, 73, 78, 68, 79, 82, 79, 75, 82, 76, 70, 81
 | 76, 72, 74, 78, 69, 79, 82, 79, 75, 81, 77, 70, 81
 | 76, 72, 73, 78, 68, 79, 82, 79, 75, 82, 77, 70, 82
 | 76, 72, 73, 78, 68, 79, 82, 79, 75, 82, 77, 70, 82
 | 76, 73, 74, 78, 69, 79, 82, 78, 76, 82, 76, 71, 81
 | 77, 73, 75, 78, 69, 78, 82, 77, 77, 81, 75, 71, 80
 | 77, 73, 74, 78, 69, 78, 82, 78, 76, 81, 76, 71, 80
 | 77, 73, 75, 77, 70, 78, 82, 78, 77, 81, 75, 71, 80
 | 77, 73, 75, 77, 70, 78, 82, 78, 76, 81, 75, 71, 80
 | 77, 73, 75, 77, 70, 78, 82, 78, 76, 80, 76, 71, 80
 | 77, 73, 75, 77, 70, 78, 82, 78, 76, 81, 76, 71, 80
 | 77, 73, 75, 77, 70, 78, 82, 79, 76, 81, 76, 71, 81
 | 77, 73, 76, 77, 70, 78, 82, 78, 76, 80, 75, 71, 80
 | 77, 73, 75, 77, 69, 78, 82, 78, 76, 81, 75, 71, 80
 | 78, 73, 75, 77, 70, 77, 82, 78, 77, 80, 75, 71, 80
 | 78, 74, 75, 77, 70, 77, 82, 77, 77, 80, 75, 72, 80
 | 78, 74, 75, 77, 70, 77, 82, 77, 77, 80, 75, 72, 80
 | 77, 74, 75, 78, 70, 78, 82, 77, 77, 81, 75, 71, 80
 | 76, 72, 74, 78, 68, 79, 82, 79, 75, 82, 77, 70, 81
 | 76, 73, 74, 78, 69, 79, 82, 78, 76, 82, 76, 70, 81
 | 76, 73, 74, 78, 69, 79, 83, 78, 76, 82, 76, 70, 81
 | 77, 73, 74, 78, 69, 78, 83, 78, 76, 81, 76, 71, 81
 | 77, 73, 74, 78, 69, 78, 82, 78, 76, 81, 75, 71, 80
 | 77, 74, 75, 77, 70, 78, 82, 77, 77, 81, 75, 71, 80
 | 77, 73, 75, 77, 70, 78, 82, 78, 77, 81, 75, 71, 80
 | 77, 73, 75, 77, 70, 78, 82, 78, 76, 81, 76, 71, 80
 | 77, 73, 75, 77, 70, 78, 82, 78, 76, 80, 75, 71, 80
 | 76, 72, 74, 78, 69, 79, 82, 79, 75, 81, 76, 70, 81
 | 76, 73, 74, 78, 69, 79, 82, 78, 76, 82, 76, 70, 81
 | 77, 73, 74, 78, 69, 78, 83, 78, 76, 81, 76, 71, 81
 | 77, 73, 74, 78, 69, 78, 83, 78, 76, 81, 76, 71, 81
 | 77, 73, 75, 77, 69, 78, 82, 78, 76, 81, 76, 71, 80
 | 77, 73, 75, 77, 69, 78, 82, 78, 76, 81, 76, 71, 81
 | 77, 73, 74, 77, 69, 78, 82, 79, 76, 81, 76, 71, 81
 | 76, 72, 73, 78, 68, 79, 82, 79, 75, 82, 77, 70, 81
 | 76, 72, 74, 78, 68, 79, 82, 79, 75, 82, 77, 70, 81
 | 76, 73, 74, 77, 69, 79, 82, 79, 76, 81, 76, 70, 81
 | 83, 77, 81, 74, 76, 73, 77, 73, 81, 76, 71, 77, 75
 | 83, 78, 80, 74, 76, 73, 77, 73, 81, 76, 71, 77, 75
 | 83, 78, 80, 74, 76, 73, 77, 73, 81, 76, 71, 77, 75
 | 82, 78, 80, 74, 76, 73, 77, 73, 81, 76, 71, 77, 75
 | 82, 78, 79, 74, 75, 74, 77, 73, 82, 76, 71, 77, 75
 | 81, 78, 79, 74, 75, 74, 77, 73, 82, 76, 71, 77, 75
 | 83, 77, 80, 74, 76, 73, 77, 73, 81, 76, 71, 76, 75
 | 83, 78, 80, 74, 76, 73, 77, 73, 81, 76, 71, 76, 75
 | 82, 78, 80, 74, 75, 73, 77, 73, 81, 76, 71, 76, 75
 | 82, 78, 80, 74, 75, 74, 77, 73, 81, 76, 71, 77, 75
 | 82, 78, 79, 74, 75, 74, 77, 73, 81, 76, 71, 76, 75
 | 82, 78, 79, 74, 75, 74, 77, 73, 81, 76, 71, 76, 76
 | 81, 78, 79, 74, 75, 74, 77, 73, 82, 76, 71, 76, 76
 | 82, 78, 79, 74, 75, 74, 77, 73, 82, 76, 71, 77, 75
 | 82, 78, 79, 74, 76, 73, 77, 73, 82, 76, 71, 77, 75
 | 82, 78, 80, 74, 76, 73, 77, 73, 82, 76, 71, 77, 75
 | 83, 78, 80, 74, 76, 73, 77, 73, 81, 76, 71, 77, 75
 | 83, 78, 81, 74, 76, 73, 77, 73, 81, 76, 71, 77, 75
 | 83, 77, 80, 74, 75, 74, 77, 73, 81, 76, 71, 76, 75
 | 82, 77, 80, 74, 75, 74, 77, 73, 81, 76, 71, 76, 76
 | 82, 78, 80, 74, 76, 73, 77, 73, 82, 76, 71, 77, 75
 | 82, 78, 79, 74, 75, 74, 77, 73, 81, 76, 71, 76, 76
 | 82, 78, 80, 74, 76, 73, 77, 73, 81, 76, 71, 77, 75
 | 81, 78, 79, 75, 75, 74, 77, 73, 82, 76, 71, 77, 76
 | 81, 79, 79, 74, 75, 74, 77, 73, 82, 76, 71, 77, 75
 | 81, 78, 79, 74, 75, 74, 77, 73, 82, 76, 71, 77, 75
 | 82, 77, 81, 74, 76, 73, 77, 73, 80, 76, 71, 77, 75
 | 82, 78, 81, 74, 76, 73, 77, 73, 81, 76, 71, 77, 75
 | 82, 77, 81, 74, 76, 73, 77, 73, 81, 76, 71, 77, 75
 | 82, 78, 81, 74, 76, 73, 77, 73, 81, 76, 71, 77, 75
 | 82, 77, 81, 74, 76, 73, 77, 73, 81, 76, 71, 77, 75
 | 82, 77, 80, 74, 76, 74, 77, 73, 81, 76, 71, 76, 76
 | 81, 78, 83, 73, 78, 73, 76, 73, 81, 75, 71, 77, 75
 | 81, 78, 83, 73, 78, 73, 76, 73, 81, 75, 71, 77, 75
 | 81, 78, 82, 73, 78, 73, 76, 73, 81, 75, 71, 78, 75
 | 81, 78, 82, 73, 78, 73, 76, 73, 82, 75, 71, 78, 75
 | 81, 78, 82, 73, 78, 73, 76, 73, 82, 75, 71, 78, 75
 | 82, 78, 81, 73, 77, 73, 76, 73, 82, 75, 71, 78, 75
 | 82, 79, 81, 73, 77, 73, 76, 72, 82, 75, 71, 78, 75
 | 82, 79, 81, 73, 77, 73, 76, 72, 82, 75, 71, 78, 75
 | 82, 79, 80, 74, 77, 73, 76, 72, 82, 75, 71, 78, 75
 | 81, 79, 80, 74, 77, 73, 76, 72, 82, 75, 71, 78, 75
 | 81, 79, 79, 74, 77, 73, 76, 72, 83, 76, 71, 78, 75
 | 80, 80, 78, 74, 76, 73, 76, 72, 82, 76, 71, 78, 75
 | 80, 80, 78, 75, 76, 74, 77, 73, 82, 76, 71, 78, 75
 | 81, 80, 79, 74, 77, 73, 76, 72, 83, 76, 71, 78, 75
 | 81, 79, 79, 74, 77, 73, 76, 72, 83, 76, 71, 78, 75
 | 82, 79, 80, 74, 77, 73, 76, 72, 82, 75, 71, 78, 75
 | 82, 79, 81, 73, 77, 73, 76, 73, 81, 75, 71, 78, 75
 | 82, 78, 81, 73, 77, 73, 76, 73, 82, 75, 71, 78, 75
 | 81, 78, 82, 73, 77, 73, 76, 73, 81, 75, 71, 78, 75
 | 81, 78, 82, 73, 77, 73, 76, 73, 81, 75, 71, 77, 75
 | 81, 78, 82, 73, 78, 73, 76, 73, 81, 75, 71, 77, 75
 | 81, 78, 83, 73, 78, 73, 76, 73, 81, 75, 71, 77, 75
 | 81, 78, 82, 73, 78, 73, 76, 73, 81, 75, 71, 78, 75
 | 81, 78, 82, 73, 78, 73, 76, 73, 82, 75, 71, 78, 74
 | 81, 78, 82, 73, 78, 73, 76, 73, 82, 75, 71, 78, 74
 | 81, 78, 82, 73, 78, 73, 76, 72, 82, 75, 71, 78, 74
 | 81, 78, 82, 73, 78, 73, 76, 72, 82, 75, 71, 78, 74
 | 81, 79, 81, 73, 78, 73, 76, 72, 82, 75, 71, 78, 74
 | 81, 79, 81, 73, 78, 73, 76, 72, 82, 75, 71, 78, 74
 | 81, 79, 81, 73, 78, 73, 76, 72, 82, 75, 71, 78, 74
 | 81, 79, 80, 73, 78, 73, 76, 72, 82, 75, 71, 78, 74
 | 81, 79, 80, 74, 77, 73, 76, 72, 82, 75, 71, 79, 74
 | 81, 79, 80, 74, 77, 73, 76, 72, 82, 75, 71, 78, 75
 | 81, 80, 79, 74, 77, 73, 76, 72, 82, 75, 71, 78, 75
 | 81, 80, 79, 74, 77, 73, 76, 72, 82, 75, 71, 79, 75
 | 81, 80, 79, 74, 77, 73, 76, 72, 83, 75, 71, 78, 75
 | 80, 80, 79, 74, 77, 73, 76, 72, 82, 75, 71, 79, 75
 | 80, 80, 78, 74, 77, 73, 76, 72, 82, 76, 71, 78, 75
 | 80, 80, 78, 75, 77, 73, 76, 72, 82, 76, 71, 78, 75
 | 80, 80, 78, 75, 77, 73, 76, 72, 82, 76, 71, 78, 75
 | 81, 79, 80, 74, 77, 73, 76, 72, 82, 75, 71, 78, 75
 | 81, 80, 79, 74, 77, 73, 76, 72, 82, 75, 71, 78, 74
 | 82, 79, 81, 73, 77, 73, 76, 73, 81, 75, 71, 78, 75
 | 81, 79, 80, 74, 77, 73, 76, 72, 82, 75, 71, 78, 75
 | 81, 80, 80, 74, 77, 73, 76, 72, 82, 75, 71, 79, 74
 | 81, 78, 82, 73, 77, 73, 76, 73, 81, 75, 71, 78, 75
 | 81, 78, 82, 73, 78, 73, 76, 73, 82, 75, 71, 78, 75
 | 81, 78, 81, 73, 78, 73, 76, 73, 82, 75, 71, 78, 75
 | 81, 79, 81, 73, 78, 73, 76, 72, 82, 75, 71, 78, 74
 | 81, 79, 81, 73, 79, 72, 76, 72, 83, 75, 70, 79, 74
 | 81, 79, 81, 73, 79, 72, 76, 72, 83, 75, 70, 79, 74
 | 81, 80, 81, 73, 79, 72, 76, 72, 82, 75, 70, 79, 74
 | 81, 80, 80, 73, 79, 72, 76, 72, 82, 75, 70, 79, 74
 | 81, 80, 80, 73, 79, 72, 76, 72, 83, 75, 70, 79, 74
 | 81, 80, 80, 73, 78, 72, 76, 72, 83, 75, 70, 79, 74
 | 80, 80, 80, 73, 78, 73, 76, 72, 83, 75, 70, 80, 74
 | 81, 80, 80, 73, 79, 72, 76, 72, 83, 75, 70, 79, 74
 | 80, 79, 81, 73, 79, 72, 76, 72, 82, 75, 71, 79, 74
 | 80, 79, 81, 73, 79, 72, 76, 72, 83, 75, 70, 79, 74
 | 80, 80, 81, 73, 79, 72, 76, 72, 82, 75, 70, 79, 74
 | 80, 80, 80, 73, 79, 72, 76, 72, 82, 75, 70, 80, 74
 | 80, 80, 80, 73, 79, 72, 76, 72, 83, 75, 70, 80, 74
 | 80, 80, 80, 73, 79, 72, 76, 72, 83, 75, 70, 80, 74
 | 80, 81, 80, 73, 79, 72, 75, 72, 82, 75, 70, 80, 74
 | 80, 80, 80, 73, 79, 72, 76, 72, 82, 75, 70, 80, 74
 | 80, 79, 81, 73, 79, 72, 76, 72, 83, 75, 70, 79, 74
 | 80, 79, 81, 73, 79, 72, 76, 72, 83, 75, 70, 79, 74
 | 80, 79, 81, 73, 79, 72, 76, 72, 83, 75, 70, 79, 74
 | 81, 79, 81, 73, 79, 72, 76, 72, 83, 75, 70, 79, 74
 | 80, 80, 81, 73, 79, 72, 76, 72, 82, 75, 70, 79, 74
 | 80, 81, 79, 73, 79, 72, 76, 72, 83, 75, 70, 80, 74
 | 80, 80, 80, 73, 78, 73, 76, 72, 82, 75, 70, 80, 74
 | 80, 81, 79, 73, 79, 72, 76, 72, 83, 75, 70, 80, 74
 | 80, 81, 79, 73, 78, 73, 76, 72, 83, 75, 70, 80, 74
 | 80, 81, 79, 73, 79, 72, 75, 72, 83, 75, 70, 80, 74
 | 80, 81, 79, 74, 78, 73, 76, 72, 83, 75, 71, 80, 74
 | 80, 81, 79, 74, 78, 73, 76, 72, 83, 75, 71, 79, 74
 | 80, 81, 79, 74, 78, 73, 76, 72, 82, 75, 71, 80, 74
 | 81, 80, 80, 73, 79, 72, 76, 72, 83, 75, 70, 79, 74
 | 80, 80, 80, 73, 79, 72, 76, 72, 82, 75, 70, 80, 74
 | 80, 80, 80, 73, 79, 72, 76, 72, 83, 75, 70, 80, 74
 | 81, 80, 81, 73, 79, 72, 76, 72, 82, 75, 70, 79, 74
 | 79, 81, 79, 73, 81, 72, 75, 72, 81, 74, 71, 81, 74
 | 79, 81, 79, 73, 81, 72, 75, 72, 81, 74, 71, 81, 74
 | 79, 81, 79, 73, 81, 72, 75, 72, 81, 74, 71, 81, 74
 | 79, 81, 79, 73, 82, 72, 75, 72, 80, 74, 71, 81, 74
 | 78, 81, 79, 73, 82, 73, 75, 72, 80, 74, 71, 81, 74
 | 78, 81, 79, 73, 82, 73, 75, 72, 80, 74, 71, 81, 74
 | 78, 81, 79, 74, 82, 73, 75, 72, 80, 74, 72, 81, 74
 | 79, 81, 79, 73, 81, 72, 75, 72, 81, 74, 71, 81, 74
 | 79, 81, 79, 73, 81, 72, 75, 72, 81, 74, 71, 81, 74
 | 79, 81, 79, 73, 82, 72, 75, 72, 81, 74, 71, 81, 74
 | 79, 81, 79, 73, 82, 72, 75, 72, 81, 74, 71, 81, 74
 | 79, 81, 79, 73, 82, 72, 75, 72, 80, 74, 71, 82, 74
 | 79, 81, 79, 73, 82, 73, 75, 72, 80, 74, 71, 81, 74
 | 78, 81, 79, 73, 82, 73, 75, 72, 80, 74, 71, 81, 74
 | 78, 81, 79, 73, 82, 73, 75, 72, 80, 74, 71, 81, 74
 | 78, 81, 79, 73, 82, 73, 75, 72, 80, 74, 71, 81, 74
 | 78, 81, 79, 73, 82, 73, 75, 72, 80, 74, 71, 81, 74
 | 78, 81, 79, 73, 82, 73, 75, 72, 80, 74, 71, 81, 74
 | 78, 81, 78, 74, 82, 73, 75, 72, 80, 74, 71, 81, 74
 | 78, 81, 79, 74, 82, 73, 75, 72, 80, 74, 71, 81, 74
 | 78, 81, 79, 74, 82, 73, 75, 72, 80, 74, 72, 81, 74
 | 79, 81, 79, 73, 82, 72, 75, 72, 80, 74, 71, 82, 74
 | 79, 81, 79, 73, 82, 72, 75, 72, 80, 74, 71, 81, 74
 | 79, 81, 79, 73, 81, 72, 75, 72, 81, 74, 71, 81, 74
 | 79, 81, 79, 73, 82, 72, 75, 72, 81, 74, 71, 82, 74
 | 78, 81, 78, 74, 82, 73, 75, 72, 79, 74, 72, 81, 74
 | 78, 80, 78, 74, 82, 73, 75, 73, 79, 74, 72, 81, 74
 | 78, 81, 78, 74, 82, 73, 75, 72, 80, 74, 72, 81, 74
 | 78, 81, 79, 74, 82, 73, 75, 72, 80, 74, 72, 81, 74
 | 78, 81, 79, 74, 82, 73, 75, 72, 80, 74, 71, 81, 74
 | 78, 81, 78, 74, 82, 73, 75, 72, 80, 74, 72, 81, 74
 | 78, 81, 79, 73, 82, 73, 75, 72, 80, 74, 71, 81, 74
 | 79, 81, 79, 73, 82, 72, 75, 72, 81, 74, 71, 81, 74
 | 78, 81, 79, 73, 82, 72, 75, 72, 80, 74, 71, 82, 74
 | 78, 81, 79, 73, 82, 73, 75, 72, 80, 74, 71, 82, 74
 | 78, 81, 79, 73, 82, 73, 75, 72, 80, 74, 71, 81, 74
 | 78, 81, 79, 73, 82, 73, 75, 72, 80, 74, 71, 81, 74
 | 78, 81, 79, 73, 82, 73, 75, 72, 80, 74, 71, 81, 74
 | 78, 81, 79, 74, 82, 73, 75, 72, 80, 74, 72, 81, 74
 | 78, 81, 79, 73, 82, 73, 75, 72, 80, 74, 71, 81, 74
 | 79, 80, 79, 73, 82, 73, 75, 72, 80, 74, 71, 81, 74
 | 79, 80, 79, 73, 82, 73, 75, 72, 80, 74, 71, 81, 74
 | 79, 80, 79, 73, 82, 73, 75, 72, 80, 74, 71, 81, 74
 | 79, 80, 79, 73, 82, 73, 75, 72, 80, 74, 71, 81, 74
 | 79, 80, 79, 73, 82, 73, 75, 72, 80, 74, 71, 81, 74
 | 78, 80, 79, 73, 83, 73, 75, 72, 80, 74, 71, 81, 74
 | 78, 80, 79, 73, 82, 73, 75, 72, 80, 74, 71, 81, 74
 | 78, 80, 79, 73, 83, 73, 75, 72, 80, 74, 71, 81, 74
 | 78, 80, 79, 73, 83, 73, 75, 72, 80, 74, 71, 81, 74
 | 78, 80, 79, 74, 82, 73, 75, 73, 80, 74, 72, 81, 74
 | 78, 80, 79, 73, 83, 73, 75, 72, 80, 74, 71, 81, 74
 | 79, 80, 79, 73, 82, 73, 75, 72, 80, 74, 71, 81, 74
 | 78, 80, 79, 73, 83, 73, 75, 72, 80, 74, 71, 81, 74
 | 78, 80, 79, 73, 83, 73, 75, 72, 80, 74, 71, 81, 74
 | 78, 80, 79, 73, 83, 73, 75, 72, 80, 74, 71, 81, 74
 | 78, 80, 79, 73, 83, 73, 75, 72, 80, 74, 71, 81, 74
 | 78, 80, 79, 74, 82, 73, 75, 73, 80, 74, 72, 81, 74
 | 78, 80, 79, 74, 82, 73, 75, 73, 80, 74, 72, 81, 74
 | 78, 80, 79, 73, 83, 73, 75, 72, 80, 74, 71, 81, 74
 | 78, 80, 79, 73, 83, 73, 75, 72, 80, 74, 71, 81, 74
 | 79, 80, 79, 73, 82, 73, 75, 72, 80, 74, 71, 81, 74
 | 79, 80, 79, 73, 82, 73, 75, 72, 80, 74, 71, 81, 74
 | 79, 80, 79, 73, 82, 73, 75, 72, 80, 74, 71, 81, 74
 | 78, 80, 79, 73, 83, 73, 75, 72, 80, 74, 71, 81, 74
 | 78, 80, 79, 73, 83, 73, 75, 72, 80, 74, 71, 81, 74
 | 78, 80, 79, 73, 83, 73, 75, 72, 80, 74, 71, 81, 74
 | 78, 80, 79, 73, 83, 73, 75, 72, 80, 74, 71, 81, 74
 | 78, 80, 79, 73, 83, 73, 75, 72, 80, 74, 71, 81, 74
 | 79, 82, 79, 73, 82, 72, 75, 72, 80, 74, 71, 82, 73
 | 78, 81, 79, 73, 82, 72, 75, 72, 80, 74, 71, 82, 73
 | 78, 81, 78, 73, 83, 73, 75, 72, 80, 74, 71, 82, 74
 | 78, 81, 78, 74, 83, 73, 75, 72, 80, 74, 71, 81, 74
 | 78, 81, 78, 73, 83, 73, 75, 72, 80, 74, 71, 82, 74
 | 78, 81, 78, 73, 83, 73, 75, 72, 80, 74, 71, 82, 74
 | 78, 81, 78, 73, 82, 72, 75, 72, 80, 74, 71, 82, 74
 | 78, 82, 78, 73, 82, 72, 75, 72, 80, 74, 71, 82, 73
 | 78, 82, 78, 73, 82, 73, 75, 72, 80, 74, 71, 82, 74
 | 78, 81, 78, 73, 83, 73, 75, 72, 80, 74, 71, 82, 74
 | 78, 81, 78, 74, 83, 73, 75, 72, 80, 74, 71, 81, 74
 | 78, 81, 78, 73, 83, 73, 75, 72, 80, 74, 71, 82, 74
 | 78, 81, 78, 73, 82, 73, 75, 72, 80, 74, 71, 82, 74
 | 78, 82, 78, 73, 82, 72, 75, 72, 80, 74, 71, 82, 73
 | 78, 81, 79, 73, 82, 72, 75, 72, 80, 74, 71, 82, 73
 | 79, 81, 79, 73, 82, 72, 75, 72, 80, 74, 71, 82, 73
 | 78, 81, 78, 73, 82, 72, 75, 72, 80, 74, 71, 82, 74
 | 78, 81, 78, 73, 83, 73, 75, 72, 80, 74, 71, 82, 74
 | 78, 81, 78, 74, 83, 73, 75, 72, 80, 74, 71, 82, 74
 | 78, 81, 78, 73, 83, 73, 75, 72, 80, 74, 71, 82, 74
 | 78, 81, 78, 73, 82, 73, 75, 72, 80, 74, 71, 82, 74
 | 78, 82, 79, 73, 82, 72, 75, 72, 80, 74, 71, 82, 73
 | 78, 81, 78, 74, 83, 73, 75, 72, 80, 74, 71, 82, 74
 | 78, 82, 78, 73, 82, 72, 75, 72, 80, 74, 71, 82, 73
 | 79, 82, 78, 74, 80, 72, 75, 72, 81, 74, 71, 82, 74
 | 79, 83, 78, 74, 80, 73, 75, 72, 81, 74, 71, 82, 74
 | 79, 82, 78, 74, 80, 73, 75, 72, 81, 74, 71, 82, 74
 | 79, 83, 78, 74, 80, 73, 75, 72, 81, 74, 71, 82, 74
 | 79, 83, 78, 74, 80, 73, 75, 72, 81, 74, 71, 81, 74
 | 79, 83, 78, 74, 80, 73, 75, 72, 81, 75, 71, 81, 74
 | 78, 83, 77, 74, 79, 73, 75, 72, 81, 75, 71, 81, 74
 | 78, 83, 77, 75, 79, 73, 75, 72, 81, 75, 71, 80, 74
 | 79, 83, 77, 74, 79, 73, 75, 72, 81, 75, 71, 81, 74
 | 79, 83, 78, 74, 79, 73, 75, 72, 81, 75, 71, 81, 74
 | 79, 83, 78, 74, 80, 73, 75, 72, 81, 75, 71, 81, 74
 | 79, 83, 78, 74, 80, 73, 75, 72, 81, 74, 71, 81, 74
 | 79, 82, 78, 74, 80, 73, 75, 72, 81, 74, 71, 82, 74
 | 79, 83, 78, 74, 80, 73, 75, 72, 81, 74, 71, 81, 74
 | 79, 83, 77, 74, 79, 73, 75, 72, 81, 75, 71, 81, 74
 | 78, 83, 77, 75, 79, 73, 75, 72, 81, 75, 71, 80, 74
 | 78, 83, 77, 74, 79, 73, 75, 72, 81, 75, 71, 81, 74
 | 79, 83, 78, 74, 79, 73, 75, 72, 81, 75, 71, 81, 74
 | 79, 83, 78, 74, 80, 73, 75, 72, 81, 74, 71, 81, 74
 | 79, 83, 78, 74, 80, 73, 75, 72, 81, 74, 71, 81, 74
 | 78, 82, 77, 75, 78, 73, 75, 72, 80, 75, 72, 80, 74
 | 79, 82, 77, 75, 78, 73, 76, 72, 80, 75, 72, 80, 74
 | 79, 82, 77, 75, 78, 73, 75, 72, 81, 75, 71, 80, 74
 | 79, 82, 77, 74, 79, 73, 75, 72, 81, 75, 71, 80, 74
 | 79, 82, 78, 74, 79, 73, 75, 72, 81, 75, 71, 81, 74
 | 79, 83, 78, 74, 80, 73, 75, 72, 81, 74, 71, 81, 74
 | 78, 82, 77, 75, 78, 73, 76, 72, 80, 75, 72, 80, 74
 | 79, 83, 77, 74, 79, 73, 75, 72, 81, 75, 71, 81, 74
 | 79, 82, 78, 74, 79, 73, 75, 72, 81, 75, 71, 81, 74
 | 79, 82, 78, 74, 79, 73, 75, 72, 81, 75, 71, 81, 74
 | 79, 82, 78, 74, 79, 73, 75, 72, 81, 75, 71, 80, 74
 | 79, 82, 78, 74, 79, 73, 75, 72, 81, 75, 71, 80, 74
 | 78, 82, 78, 73, 81, 72, 75, 72, 80, 74, 71, 83, 73
 | 78, 83, 78, 74, 81, 72, 75, 72, 80, 74, 71, 82, 73
 | 78, 82, 78, 74, 80, 73, 75, 72, 80, 74, 71, 82, 74
 | 78, 82, 78, 74, 80, 73, 75, 72, 80, 75, 71, 81, 74
 | 78, 83, 77, 74, 79, 73, 75, 72, 80, 75, 71, 81, 74
 | 78, 82, 77, 75, 79, 73, 75, 72, 80, 75, 72, 80, 74
 | 78, 82, 77, 75, 78, 74, 76, 73, 80, 75, 72, 80, 74
 | 78, 82, 76, 76, 77, 74, 76, 73, 79, 76, 73, 79, 75
 | 78, 82, 77, 75, 78, 74, 76, 73, 80, 75, 72, 79, 75
 | 78, 82, 77, 75, 78, 74, 75, 73, 80, 75, 72, 80, 74
 | 78, 82, 77, 75, 79, 73, 75, 72, 80, 75, 72, 80, 74
 | 78, 82, 77, 75, 79, 73, 75, 72, 80, 75, 72, 81, 74
 | 78, 83, 77, 74, 79, 73, 75, 72, 80, 75, 71, 81, 74
 | 78, 83, 77, 74, 80, 73, 75, 72, 80, 75, 71, 81, 74
 | 78, 82, 78, 74, 80, 73, 75, 72, 80, 74, 71, 82, 74
 | 78, 83, 78, 74, 81, 73, 75, 72, 80, 74, 71, 82, 74
 | 78, 83, 78, 74, 81, 72, 75, 72, 80, 74, 71, 83, 73
 | 78, 82, 78, 73, 82, 72, 75, 72, 80, 74, 71, 83, 73
 | 78, 83, 78, 74, 81, 73, 75, 72, 80, 74, 71, 82, 73
 | 78, 83, 78, 74, 81, 73, 75, 72, 80, 74, 71, 82, 74
 | 78, 82, 78, 74, 81, 73, 75, 72, 80, 74, 71, 82, 74
 | 78, 83, 77, 74, 80, 73, 75, 72, 80, 74, 71, 82, 74
 | 78, 83, 77, 74, 80, 73, 75, 72, 80, 75, 71, 81, 74
 | 78, 83, 77, 74, 80, 73, 75, 72, 80, 74, 71, 81, 74
 | 78, 83, 77, 74, 80, 73, 75, 72, 80, 75, 71, 81, 74
 | 78, 83, 77, 74, 79, 73, 75, 72, 80, 75, 71, 81, 74
 | 78, 83, 77, 74, 80, 73, 75, 72, 80, 75, 71, 81, 74
 | 78, 83, 77, 74, 80, 73, 75, 72, 80, 75, 71, 81, 74
 | 78, 83, 77, 74, 80, 73, 75, 72, 80, 75, 72, 81, 74
 | 78, 82, 77, 74, 80, 73, 75, 72, 80, 75, 72, 81, 74
 | 78, 83, 77, 75, 79, 73, 75, 72, 80, 75, 72, 81, 74
 | 78, 82, 77, 75, 79, 73, 75, 72, 80, 75, 72, 80, 74
 | 78, 82, 77, 75, 79, 73, 75, 72, 80, 75, 72, 81, 74
 | 78, 83, 77, 75, 79, 73, 75, 72, 80, 75, 72, 81, 74
 | 78, 82, 77, 75, 79, 74, 75, 72, 80, 75, 72, 80, 74
 | 78, 83, 77, 75, 79, 74, 75, 73, 80, 75, 72, 80, 74
 | 78, 83, 77, 75, 78, 74, 75, 73, 80, 75, 72, 80, 74
 | 78, 83, 76, 75, 78, 74, 76, 73, 80, 75, 72, 80, 74
 | 78, 82, 76, 76, 78, 74, 76, 73, 79, 75, 73, 79, 75
 | 78, 82, 76, 76, 78, 74, 76, 73, 79, 75, 72, 79, 75
 | 78, 82, 76, 76, 78, 74, 76, 73, 79, 75, 72, 79, 75
 | 78, 82, 76, 76, 78, 74, 76, 73, 79, 76, 73, 79, 75
 | 78, 82, 76, 76, 77, 74, 76, 73, 79, 76, 73, 79, 75
 | 78, 82, 76, 76, 77, 74, 76, 73, 79, 76, 73, 79, 75
 | 78, 83, 76, 75, 78, 74, 76, 73, 79, 75, 72, 80, 74
 | 78, 83, 77, 75, 78, 74, 75, 73, 80, 75, 72, 80, 74
 | 78, 82, 77, 75, 79, 73, 75, 72, 80, 75, 72, 81, 74
 | 78, 82, 77, 75, 79, 73, 75, 72, 80, 75, 72, 81, 74
 | 78, 83, 77, 74, 80, 73, 75, 72, 80, 75, 71, 81, 74
 | 78, 82, 78, 74, 81, 72, 75, 72, 80, 74, 71, 83, 73
 | 78, 83, 78, 74, 81, 73, 75, 72, 80, 74, 71, 82, 73
 | 78, 83, 78, 74, 81, 73, 75, 72, 80, 74, 71, 82, 74
 | 78, 83, 78, 74, 81, 73, 75, 72, 80, 74, 71, 82, 74
 | 78, 82, 78, 74, 81, 73, 75, 72, 80, 74, 71, 83, 73
 | 78, 82, 78, 74, 80, 73, 75, 72, 80, 74, 71, 82, 74
 | 78, 83, 77, 75, 79, 73, 75, 72, 80, 75, 72, 81, 74
 | 78, 82, 77, 75, 79, 73, 75, 72, 80, 75, 72, 80, 74
 | 78, 82, 77, 75, 79, 73, 75, 72, 80, 75, 72, 80, 74
 | 78, 82, 77, 75, 78, 74, 75, 72, 80, 75, 72, 80, 74
 | 78, 82, 76, 76, 78, 74, 76, 73, 79, 75, 72, 79, 75
 | 78, 82, 77, 75, 78, 74, 76, 73, 80, 75, 72, 80, 74
 | 78, 82, 76, 76, 77, 74, 76, 73, 79, 76, 73, 79, 75
 | 78, 82, 76, 76, 78, 74, 76, 73, 79, 76, 73, 79, 75
 | 78, 82, 78, 74, 82, 73, 75, 72, 80, 74, 71, 83, 73
 | 78, 82, 78, 74, 81, 73, 75, 72, 80, 74, 71, 82, 73
 | 78, 82, 78, 74, 82, 73, 75, 72, 80, 74, 71, 82, 74
 | 78, 82, 78, 74, 81, 73, 75, 72, 80, 74, 71, 82, 74
 | 78, 82, 78, 74, 81, 73, 75, 72, 80, 74, 71, 82, 74
 | 78, 82, 78, 74, 81, 73, 75, 72, 80, 74, 71, 82, 74
 | 78, 82, 78, 74, 81, 73, 75, 72, 80, 74, 71, 82, 74
 | 78, 82, 78, 74, 81, 73, 75, 72, 80, 74, 71, 82, 74
 | 78, 83, 77, 74, 81, 73, 75, 72, 80, 74, 71, 82, 74
 | 78, 83, 77, 74, 80, 73, 75, 72, 80, 74, 71, 82, 74
 | 78, 82, 77, 74, 80, 73, 75, 72, 80, 75, 72, 81, 74
 | 78, 83, 77, 75, 79, 73, 75, 72, 80, 75, 72, 81, 74
 | 78, 82, 77, 75, 79, 74, 75, 72, 80, 75, 72, 80, 74
 | 78, 82, 77, 75, 79, 74, 75, 73, 79, 75, 72, 80, 74
 | 78, 82, 77, 75, 79, 74, 75, 73, 80, 75, 72, 80, 74
 | 78, 83, 77, 75, 79, 73, 75, 72, 80, 75, 72, 81, 74
 | 78, 83, 77, 75, 80, 73, 75, 72, 80, 75, 72, 81, 74
 | 78, 83, 77, 74, 80, 73, 75, 72, 80, 74, 72, 81, 74
 | 78, 83, 77, 74, 81, 73, 75, 72, 80, 74, 71, 82, 74
 | 78, 83, 77, 74, 80, 73, 75, 72, 80, 74, 72, 81, 74
 | 78, 83, 77, 74, 80, 73, 75, 72, 80, 75, 72, 81, 74
 | 78, 82, 77, 74, 80, 73, 75, 72, 80, 75, 72, 81, 74
 | 78, 83, 77, 74, 80, 73, 75, 72, 80, 74, 72, 81, 74
 | 78, 83, 77, 74, 80, 73, 75, 72, 80, 74, 72, 82, 74
 | 78, 83, 77, 75, 80, 73, 75, 72, 80, 75, 72, 81, 74
 | 78, 83, 77, 74, 80, 73, 75, 72, 80, 75, 72, 81, 74
 | 78, 83, 77, 75, 79, 73, 75, 72, 80, 75, 72, 81, 74
 | 78, 82, 77, 75, 79, 74, 75, 73, 80, 75, 72, 80, 74
 | 78, 82, 77, 75, 79, 74, 75, 73, 79, 75, 72, 80, 74
 | 78, 82, 77, 75, 79, 74, 75, 73, 79, 75, 72, 80, 74
 | 78, 83, 77, 75, 79, 74, 75, 73, 80, 75, 72, 81, 74
 | 78, 83, 77, 75, 80, 73, 75, 72, 80, 75, 72, 81, 74
 | 78, 83, 77, 75, 80, 73, 75, 72, 80, 75, 72, 81, 74
 | 78, 82, 77, 74, 80, 73, 75, 72, 80, 75, 72, 81, 74
 | 78, 83, 77, 74, 80, 73, 75, 72, 80, 74, 72, 81, 74
 | 78, 82, 77, 75, 79, 74, 75, 73, 79, 75, 72, 80, 74
 | 78, 82, 76, 75, 78, 74, 75, 73, 79, 75, 72, 80, 74
 | 78, 82, 76, 75, 79, 74, 75, 73, 79, 75, 72, 80, 74
 | 78, 82, 77, 75, 79, 74, 75, 73, 79, 75, 72, 80, 74
 | 78, 82, 77, 75, 79, 74, 75, 73, 79, 75, 72, 80, 74
 | 78, 82, 77, 75, 79, 74, 75, 73, 79, 75, 72, 80, 74
 | 78, 83, 77, 75, 79, 73, 75, 73, 80, 75, 72, 81, 74
 | 78, 83, 77, 75, 80, 73, 75, 72, 80, 75, 72, 81, 74
 | 78, 83, 77, 74, 80, 73, 75, 72, 80, 75, 72, 81, 74
 | 78, 83, 77, 74, 81, 73, 75, 72, 80, 74, 72, 82, 74
 | 78, 83, 77, 74, 80, 73, 75, 72, 80, 74, 72, 81, 74
 | 78, 82, 77, 74, 80, 73, 75, 72, 80, 75, 72, 81, 74
 | 78, 82, 77, 74, 80, 73, 75, 72, 80, 75, 72, 81, 74
 | 78, 83, 77, 75, 80, 73, 75, 72, 80, 75, 72, 81, 74
 | 78, 83, 77, 75, 80, 73, 75, 72, 79, 75, 72, 81, 74
 | 78, 83, 77, 75, 80, 73, 75, 73, 79, 75, 72, 81, 74
 | 78, 82, 77, 75, 79, 74, 75, 73, 79, 75, 72, 81, 74
 | 78, 83, 77, 75, 80, 73, 75, 73, 79, 75, 72, 81, 74
 | 78, 83, 77, 75, 80, 73, 75, 72, 80, 75, 72, 81, 74
 | 78, 83, 77, 74, 80, 73, 75, 72, 80, 75, 72, 81, 74 |];
 P=[8, 8, 8, 8, 8, 8, 8, 11, 11, 4, 4, 4, 4, 4, 4, 4, 4, 4, 8, 8, 8, 8, 8, 8, 8, 8, 8, 11, 11, 11, 4, 4, 4, 4, 4, 4, 4, 4, 4, 4, 4, 4, 4, 8, 8, 8, 8, 8, 8, 8, 8, 8, 8, 8, 11, 11, 11, 11, 11, 4, 4, 4, 4, 4, 4, 4, 4, 4, 4, 4, 4, 4, 4, 4, 4, 4, 4, 4, 11, 11, 11, 11, 8, 8, 4, 4, 4, 8, 8, 8, 8, 8, 8, 8, 8, 8, 8, 8, 4, 4, 4, 4, 4, 4, 4, 4, 4, 4, 6, 6, 6, 6, 6, 6, 6, 6, 6, 6, 6, 6, 6, 6, 6, 6, 6, 6, 6, 6, 6, 6, 6, 6, 13, 13, 13, 13, 13, 10, 10, 13, 13, 13, 13, 13, 13, 13, 13, 13, 13, 10, 10, 13, 13, 13, 13, 13, 13, 13, 13, 7, 7, 7, 7, 7, 7, 7, 7, 7, 7, 7, 7, 7, 7, 7, 7, 7, 7, 7, 7, 7, 7, 7, 7, 7, 7, 7, 7, 7, 7, 7, 7, 7, 7, 7, 7, 7, 7, 7, 7, 7, 7, 7, 7, 7, 7, 7, 7, 7, 7, 7, 7, 7, 7, 7, 7, 7, 7, 7, 7, 7, 7, 7, 7, 7, 7, 7, 7, 7, 7, 7, 7, 7, 1, 1, 1, 1, 1, 1, 1, 1, 1, 1, 1, 1, 1, 1, 1, 1, 1, 1, 1, 1, 1, 1, 1, 1, 1, 1, 1, 1, 1, 1, 1, 1, 3, 3, 3, 3, 3, 3, 3, 3, 9, 9, 9, 9, 9, 9, 9, 9, 1, 3, 3, 3, 3, 3, 3, 3, 3, 3, 3, 3, 3, 3, 9, 9, 9, 9, 9, 9, 9, 9, 9, 9, 9, 9, 3, 9, 9, 3, 3, 3, 3, 9, 9, 9, 9, 9, 9, 9, 9, 9, 9, 9, 9, 9, 9, 9, 9, 9, 9, 9, 9, 9, 9, 9, 9, 9, 9, 9, 9, 9, 9, 9, 9, 9, 5, 5, 5, 5, 5, 5, 5, 5, 5, 5, 5, 5, 5, 5, 5, 5, 5, 5, 5, 5, 5, 5, 5, 5, 5, 5, 5, 5, 5, 5, 5, 5, 5, 5, 5, 5, 5, 5, 5, 5, 5, 5, 5, 5, 5, 5, 5, 5, 5, 5, 5, 5, 5, 5, 5, 5, 5, 5, 5, 5, 5, 5, 5, 5, 5, 5, 5, 5, 5, 5, 5, 5, 5, 5, 5, 5, 5, 5, 5, 5, 5, 5, 5, 5, 5, 5, 5, 5, 5, 5, 5, 5, 2, 2, 2, 2, 2, 2, 2, 2, 2, 2, 2, 2, 2, 2, 2, 2, 2, 2, 2, 2, 2, 2, 2, 2, 2, 2, 2, 2, 2, 2, 2, 2, 12, 2, 2, 2, 2, 2, 2, 2, 2, 2, 2, 2, 2, 2, 2, 2, 2, 12, 2, 2, 2, 2, 2, 2, 2, 2, 2, 2, 2, 2, 2, 2, 2, 2, 2, 2, 2, 2, 2, 2, 2, 2, 2, 2, 2, 2, 2, 2, 2, 2, 2, 2, 2, 2, 2, 2, 2, 2, 2, 2, 2, 2, 2, 12, 2, 12, 2, 2, 2, 2, 2, 2, 2, 2, 2, 2, 2, 2, 2, 2, 2, 2, 2, 2, 2, 2, 2, 2, 2, 2, 2, 2, 2, 2, 2, 2, 2, 2, 2, 2, 2, 2, 2, 2, 2, 2, 2, 2, 2, 2, 2, 2, 2, 2, 2, 2, 2, 2 ];